23438 22592 1 2 3 4 5 6 7 8 9 10 12 13 14 15 19 20 23 24 25 27 30 31 33 34 36 39 41 42 43 44 45 46 47 48 49 50 52 53 54 55 56 57 58 60 63 64 65 66 67 69 70 71 73 74 75 76 77 78 79 80 81 82 83 86 87 88 89 90 91 92 93 94 95 96 97 99 100 